(set-info :source  loris-7.ddns.comp.nus.edu.sg/~project/hip/) 
;Variables declarations
(declare-fun n () Int)
(declare-fun d_3838 () Int)
(declare-fun mx () Int)
(declare-fun m3_3837 () Int)
(declare-fun m1_3840 () Int)
(declare-fun m2_3843 () Int)
(declare-fun v_bool_27_1962_primed () Int)
(declare-fun tmp_null_primed () Int)
(declare-fun v_primed () Int)
(declare-fun v () Int)
(declare-fun t () Int)
(declare-fun t_primed () Int)
(declare-fun mx1_3841 () Int)
(declare-fun m1_3835 () Int)
(declare-fun l_3839 () Int)
(declare-fun mx2_3844 () Int)
(declare-fun m2_3836 () Int)
(declare-fun r_3842 () Int)
;Relations declarations
;Axioms assertions
;Antecedent
(assert (= n (+ (+ m2_3843 1) m1_3840)))
(assert (<= 0 d_3838))
(assert (<= mx1_3841 d_3838))
(assert (<= mx2_3844 d_3838))
(assert (<= d_3838 mx))
(assert (= (+ m3_3837 m2_3843) m1_3840))
(assert (<= 0 m3_3837))
(assert (<= m3_3837 1))
(assert (= m1_3835 m1_3840))
(assert (= m2_3836 m2_3843))
(assert (not (> v_bool_27_1962_primed 0)))
(assert (> t_primed 0))
(assert (< tmp_null_primed 1))
(assert (<= 0 v))
(assert (= v_primed v))
(assert (= t_primed t))
(assert (= t_primed 1))
(assert (or (and (and (< l_3839 1) (= m1_3835 0)) (= mx1_3841 0)) (and (and (<= 0 mx1_3841) (<= 1 m1_3835)) (> l_3839 0))))
(assert (or (and (and (< r_3842 1) (= m2_3836 0)) (= mx2_3844 0)) (and (and (<= 0 mx2_3844) (<= 1 m2_3836)) (> r_3842 0))))
;Negation of Consequence
(assert (not false))
(check-sat)